10441 6359 1 2 3 4 6 7 9 10 11 12 14 15 17 18 19 22 23 25 28 29 30 31 32 33 37 38 40 41 45 46 50 51 52 53 56 57 59 61 62 63 64 66 67 71 72 74 75 78 80 82 83 84 85 86 87 88 89 91 93 94 95 96 98 99 101 103 104 106 107 108 109 111 112 113 116 117 122 123 125 128 129 131 132 133 135 138 139 140 141 142 144 147 148 149 150 151 153 155 156 157 159 160 162 170 171 173 174 177 178 179 184 185 187 188 189 190 194 195 197 198 199 200 202 203 204 205 208 210 212 217 218 222 226 227 228 229 230 232 233 234 235 236 237 239 240 241 242 244 245 246 247 250 251 252 254 255 256 257 259 260 261 262 263 264 267 269 273 274 276 277 278 280 281 282 284 285 286 287 288 290 291 292 294 295 296 298 300 301 302 304 305 306 308 309 310 311 313 315 316 317 318 319 320 321 322 325 326 329 330 331 333 334 335 337 338 339 341 345 346 347 348 352 353 356 357 358 361 362 363 364 365 368 369 370 371 372 373 375 377 380 381 383 384 385 386 387 388 389 390 392 396 397 399 401 405 406 407 408 411 412 413 416 417 418 420 421 422 423 425 427 428 429 430 431 433 434 435 437 439 440 442 443 445 446 447 448 449 451 452 453 454 456 458 459 462 471 472 473 474 475 477 479 480 486 487 488 490 491 493 494 496 498 499 